DIMACS2
40 55 309 161 191 75 118 69 243 7 262 318 78 71 36 259 63 185 72 235 115 35 79 213 280 256 160 222 65 237 301 5 175 148 29 144 195 263 10 62 303
p edge 320 1311
e 0 207 1.0
e 0 48 1.0
e 0 267 1.0
e 0 242 1.0
e 1 156 1.0
e 1 98 1.0
e 1 208 1.0
e 1 105 1.0
e 2 279 1.0
e 2 162 1.0
e 2 70 1.0
e 2 311 1.0
e 3 198 1.0
e 3 25 1.0
e 3 14 2.0
e 3 121 1.0
e 4 300 1.0
e 4 122 2.0
e 4 249 1.0
e 4 295 1.0
e 5 37 38.0
e 5 157 34.0
e 5 284 41.0
e 5 38 13.0
e 6 306 1.0
e 6 315 1.0
e 6 90 1.0
e 6 303 37.0
e 7 287 41.0
e 7 236 41.0
e 7 192 7.0
e 7 206 10.0
e 8 202 1.0
e 8 119 1.0
e 8 210 1.0
e 8 310 1.0
e 9 257 1.0
e 9 109 1.0
e 9 145 1.0
e 9 172 1.0
e 10 278 47.0
e 10 318 42.0
e 10 197 39.0
e 10 267 17.0
e 10 309 24.0
e 11 229 1.0
e 11 102 2.0
e 11 212 1.0
e 11 273 2.0
e 12 24 1.0
e 12 63 27.0
e 12 240 1.0
e 12 190 1.0
e 13 91 1.0
e 13 134 1.0
e 13 45 1.0
e 13 225 1.0
e 14 133 1.0
e 14 279 2.0
e 14 141 1.0
e 14 144 27.0
e 15 223 2.0
e 15 237 24.0
e 15 38 1.0
e 15 96 2.0
e 16 0 1.0
e 16 131 3.0
e 16 130 1.0
e 16 296 2.0
e 17 113 1.0
e 17 107 1.0
e 17 46 1.0
e 17 265 1.0
e 18 277 1.0
e 18 180 1.0
e 18 20 1.0
e 18 119 1.0
e 19 169 1.0
e 19 15 1.0
e 19 165 1.0
e 19 20 2.0
e 20 49 1.0
e 20 194 1.0
e 20 209 2.0
e 20 181 1.0
e 21 66 2.0
e 21 125 2.0
e 21 235 28.0
e 21 43 1.0
e 22 84 1.0
e 22 93 1.0
e 22 72 45.0
e 22 297 1.0
e 23 213 49.0
e 23 273 1.0
e 23 201 1.0
e 23 204 1.0
e 24 80 1.0
e 24 154 1.0
e 24 106 1.0
e 24 208 2.0
e 25 157 2.0
e 25 155 1.0
e 25 183 1.0
e 25 215 1.0
e 26 228 1.0
e 26 167 1.0
e 26 229 2.0
e 26 107 1.0
e 27 36 39.0
e 27 246 1.0
e 27 273 2.0
e 27 142 1.0
e 28 81 1.0
e 28 156 1.0
e 28 124 1.0
e 28 106 1.0
e 29 312 14.0
e 29 165 49.0
e 29 163 36.0
e 29 229 23.0
e 30 118 22.0
e 30 273 1.0
e 30 314 2.0
e 30 181 1.0
e 31 49 1.0
e 31 173 1.0
e 31 61 1.0
e 31 307 1.0
e 32 148 47.0
e 32 195 22.0
e 32 10 43.0
e 32 16 1.0
e 33 312 1.0
e 33 270 2.0
e 33 163 1.0
e 33 16 1.0
e 34 100 1.0
e 34 3 1.0
e 34 297 1.0
e 34 127 1.0
e 35 137 48.0
e 35 149 17.0
e 35 283 45.0
e 35 190 42.0
e 35 243 38.0
e 36 49 3.0
e 36 12 22.0
e 36 239 1.0
e 36 33 11.0
e 37 207 1.0
e 37 234 1.0
e 37 259 24.0
e 37 38 1.0
e 38 312 1.0
e 38 56 1.0
e 38 211 2.0
e 38 197 2.0
e 39 255 1.0
e 39 35 14.0
e 39 204 1.0
e 39 123 1.0
e 40 123 1.0
e 40 21 2.0
e 40 212 1.0
e 40 276 1.0
e 41 156 1.0
e 41 150 1.0
e 41 158 1.0
e 41 293 1.0
e 42 273 1.0
e 42 269 1.0
e 42 56 1.0
e 42 141 1.0
e 43 244 1.0
e 43 316 1.0
e 43 174 1.0
e 43 93 1.0
e 44 37 1.0
e 44 246 3.0
e 44 239 1.0
e 44 181 1.0
e 45 65 33.0
e 45 91 1.0
e 45 38 1.0
e 46 120 1.0
e 46 262 1.0
e 46 216 1.0
e 46 193 1.0
e 47 4 2.0
e 47 311 2.0
e 47 265 3.0
e 47 89 3.0
e 48 288 1.0
e 48 23 1.0
e 48 224 1.0
e 48 164 1.0
e 49 304 2.0
e 49 248 1.0
e 49 269 1.0
e 49 55 31.0
e 50 34 1.0
e 50 268 1.0
e 50 70 2.0
e 50 311 1.0
e 51 13 1.0
e 51 39 1.0
e 51 27 1.0
e 51 244 1.0
e 52 302 1.0
e 52 271 2.0
e 52 305 2.0
e 52 29 7.0
e 53 263 1.0
e 53 297 1.0
e 53 14 1.0
e 53 221 1.0
e 54 31 1.0
e 54 250 1.0
e 54 215 1.0
e 54 123 1.0
e 55 86 4.0
e 55 174 40.0
e 55 277 27.0
e 55 47 42.0
e 55 144 18.0
e 55 301 28.0
e 55 222 3.0
e 56 241 2.0
e 56 273 2.0
e 56 283 2.0
e 56 207 1.0
e 57 83 1.0
e 57 164 1.0
e 57 153 1.0
e 57 113 2.0
e 58 141 1.0
e 58 289 1.0
e 58 25 1.0
e 58 85 1.0
e 59 234 1.0
e 59 61 1.0
e 59 179 1.0
e 59 278 1.0
e 60 94 1.0
e 60 3 1.0
e 60 196 1.0
e 60 31 1.0
e 61 128 2.0
e 61 40 1.0
e 61 292 2.0
e 61 152 2.0
e 62 22 44.0
e 62 301 45.0
e 62 307 43.0
e 62 134 24.0
e 62 309 47.0
e 62 280 45.0
e 62 115 6.0
e 62 318 11.0
e 63 191 42.0
e 63 308 17.0
e 63 50 2.0
e 63 65 32.0
e 64 8 1.0
e 64 173 1.0
e 64 251 1.0
e 64 35 48.0
e 65 249 21.0
e 65 290 39.0
e 65 89 36.0
e 65 210 33.0
e 66 201 1.0
e 66 24 1.0
e 66 176 1.0
e 66 183 1.0
e 67 155 1.0
e 67 98 1.0
e 67 233 1.0
e 67 100 1.0
e 68 305 1.0
e 68 164 2.0
e 68 218 1.0
e 68 115 4.0
e 69 307 36.0
e 69 90 4.0
e 69 258 15.0
e 69 253 36.0
e 70 218 1.0
e 70 44 1.0
e 70 154 1.0
e 70 63 14.0
e 71 199 12.0
e 71 118 31.0
e 71 141 7.0
e 71 120 8.0
e 71 259 47.0
e 71 144 35.0
e 71 55 34.0
e 72 69 9.0
e 72 98 16.0
e 72 175 14.0
e 72 130 19.0
e 73 150 2.0
e 73 78 31.0
e 73 218 2.0
e 73 232 1.0
e 74 275 3.0
e 74 97 1.0
e 74 188 2.0
e 74 162 1.0
e 75 201 38.0
e 75 153 41.0
e 75 187 45.0
e 75 150 1.0
e 76 239 1.0
e 76 13 1.0
e 76 77 1.0
e 76 57 1.0
e 77 239 1.0
e 77 24 1.0
e 77 45 1.0
e 77 213 33.0
e 78 20 10.0
e 78 65 33.0
e 78 150 38.0
e 78 281 15.0
e 79 56 13.0
e 79 245 44.0
e 79 134 43.0
e 79 273 4.0
e 79 259 16.0
e 79 115 41.0
e 79 148 20.0
e 80 249 1.0
e 80 313 1.0
e 80 196 1.0
e 80 129 1.0
e 81 188 1.0
e 81 44 1.0
e 81 25 1.0
e 81 276 1.0
e 82 184 1.0
e 82 176 1.0
e 82 256 27.0
e 82 36 37.0
e 83 120 1.0
e 83 188 1.0
e 83 90 1.0
e 83 123 1.0
e 84 196 1.0
e 84 155 1.0
e 84 247 1.0
e 84 274 1.0
e 85 252 2.0
e 85 177 1.0
e 85 240 1.0
e 85 103 1.0
e 86 168 2.0
e 86 310 1.0
e 86 234 1.0
e 86 51 1.0
e 87 140 1.0
e 87 110 1.0
e 87 119 1.0
e 87 2 1.0
e 88 97 2.0
e 88 130 1.0
e 88 161 40.0
e 88 184 1.0
e 89 205 1.0
e 89 40 1.0
e 89 192 1.0
e 89 296 1.0
e 90 20 2.0
e 90 307 1.0
e 90 160 18.0
e 90 302 1.0
e 91 186 2.0
e 91 291 1.0
e 91 22 1.0
e 91 306 1.0
e 92 30 1.0
e 92 154 1.0
e 92 285 1.0
e 92 48 1.0
e 93 222 10.0
e 93 277 1.0
e 93 86 1.0
e 93 207 2.0
e 94 216 1.0
e 94 246 1.0
e 94 50 2.0
e 94 183 1.0
e 95 41 1.0
e 95 214 1.0
e 95 52 2.0
e 95 75 9.0
e 96 152 1.0
e 96 182 2.0
e 96 8 1.0
e 96 53 1.0
e 97 15 2.0
e 97 125 1.0
e 97 23 2.0
e 97 7 7.0
e 98 309 1.0
e 98 269 1.0
e 98 96 1.0
e 98 138 1.0
e 99 78 8.0
e 99 104 2.0
e 99 128 1.0
e 99 223 2.0
e 100 39 1.0
e 100 36 7.0
e 100 10 10.0
e 100 42 1.0
e 101 62 42.0
e 101 35 33.0
e 101 149 1.0
e 101 235 49.0
e 102 160 35.0
e 102 147 1.0
e 102 146 1.0
e 102 169 1.0
e 103 167 2.0
e 103 200 1.0
e 103 74 2.0
e 103 184 2.0
e 104 71 45.0
e 104 310 1.0
e 104 5 16.0
e 104 224 1.0
e 105 52 1.0
e 105 133 1.0
e 105 125 1.0
e 105 154 1.0
e 106 17 1.0
e 106 159 1.0
e 106 177 1.0
e 106 84 1.0
e 107 256 31.0
e 107 42 2.0
e 107 67 1.0
e 107 14 1.0
e 108 175 38.0
e 108 147 1.0
e 108 29 30.0
e 108 25 1.0
e 109 187 1.0
e 109 41 1.0
e 109 55 31.0
e 109 118 37.0
e 110 200 1.0
e 110 68 1.0
e 110 83 1.0
e 110 21 1.0
e 111 168 1.0
e 111 28 1.0
e 111 85 2.0
e 111 72 15.0
e 112 136 2.0
e 112 181 2.0
e 112 118 12.0
e 112 111 1.0
e 113 307 1.0
e 113 127 1.0
e 113 159 1.0
e 113 148 25.0
e 114 170 2.0
e 114 194 1.0
e 114 160 39.0
e 114 211 1.0
e 115 154 49.0
e 115 141 42.0
e 115 117 48.0
e 115 214 9.0
e 115 185 17.0
e 115 222 17.0
e 116 214 1.0
e 116 143 1.0
e 116 130 1.0
e 116 28 1.0
e 117 201 1.0
e 117 276 1.0
e 117 38 3.0
e 117 4 2.0
e 118 150 36.0
e 118 143 18.0
e 118 310 11.0
e 118 81 41.0
e 119 29 15.0
e 119 279 1.0
e 119 7 42.0
e 119 297 1.0
e 120 65 16.0
e 120 90 1.0
e 120 97 1.0
e 120 44 1.0
e 121 235 46.0
e 121 50 1.0
e 121 5 2.0
e 121 92 1.0
e 122 212 1.0
e 122 49 1.0
e 122 249 1.0
e 122 178 1.0
e 123 128 1.0
e 123 126 1.0
e 123 36 39.0
e 123 97 2.0
e 124 49 2.0
e 124 65 5.0
e 124 32 1.0
e 124 244 2.0
e 125 177 3.0
e 125 242 1.0
e 125 283 1.0
e 125 77 1.0
e 126 60 1.0
e 126 63 46.0
e 126 53 1.0
e 126 75 27.0
e 127 282 2.0
e 127 159 1.0
e 127 250 1.0
e 127 298 1.0
e 128 46 1.0
e 128 154 1.0
e 128 91 2.0
e 128 187 1.0
e 129 177 1.0
e 129 176 1.0
e 129 66 1.0
e 129 209 1.0
e 130 17 1.0
e 130 1 1.0
e 130 261 2.0
e 130 208 1.0
e 131 276 1.0
e 131 232 1.0
e 131 17 1.0
e 131 207 1.0
e 132 247 1.0
e 132 117 1.0
e 132 156 1.0
e 132 246 1.0
e 133 88 2.0
e 133 53 1.0
e 133 22 1.0
e 133 65 38.0
e 134 75 19.0
e 134 87 1.0
e 134 247 1.0
e 134 232 1.0
e 135 179 2.0
e 135 78 18.0
e 135 97 1.0
e 135 12 1.0
e 136 91 1.0
e 136 292 3.0
e 136 144 30.0
e 136 118 7.0
e 137 60 1.0
e 137 140 1.0
e 137 36 45.0
e 137 218 1.0
e 138 249 1.0
e 138 47 2.0
e 138 110 1.0
e 138 61 1.0
e 139 196 1.0
e 139 240 1.0
e 139 168 1.0
e 139 6 1.0
e 140 294 1.0
e 140 13 1.0
e 140 295 1.0
e 140 223 1.0
e 141 241 1.0
e 141 122 1.0
e 141 125 1.0
e 141 184 1.0
e 142 241 1.0
e 142 2 1.0
e 142 113 3.0
e 142 146 1.0
e 143 175 5.0
e 143 239 1.0
e 143 5 19.0
e 143 257 1.0
e 144 291 20.0
e 144 211 21.0
e 144 134 18.0
e 144 257 20.0
e 145 173 1.0
e 145 135 1.0
e 145 94 1.0
e 145 50 1.0
e 146 266 1.0
e 146 54 1.0
e 146 238 2.0
e 146 281 1.0
e 147 128 1.0
e 147 4 1.0
e 147 309 15.0
e 147 174 1.0
e 148 49 15.0
e 148 72 25.0
e 148 103 43.0
e 148 64 17.0
e 149 84 1.0
e 149 121 1.0
e 149 197 2.0
e 149 239 1.0
e 150 188 1.0
e 150 164 1.0
e 150 142 2.0
e 150 216 1.0
e 151 267 1.0
e 151 97 1.0
e 151 200 1.0
e 151 243 10.0
e 152 222 17.0
e 152 244 2.0
e 152 314 1.0
e 152 44 2.0
e 153 259 10.0
e 153 252 1.0
e 153 40 1.0
e 154 41 1.0
e 154 45 1.0
e 154 213 30.0
e 154 56 1.0
e 155 307 1.0
e 155 139 1.0
e 155 110 1.0
e 155 75 12.0
e 156 148 49.0
e 156 12 1.0
e 156 270 1.0
e 156 4 2.0
e 157 121 1.0
e 157 310 1.0
e 157 41 1.0
e 157 251 1.0
e 158 227 1.0
e 158 226 1.0
e 158 289 1.0
e 158 37 1.0
e 159 74 1.0
e 159 7 32.0
e 159 93 1.0
e 159 65 39.0
e 160 176 39.0
e 160 74 11.0
e 160 139 40.0
e 160 39 45.0
e 161 75 32.0
e 161 159 36.0
e 161 85 16.0
e 161 216 14.0
e 161 115 10.0
e 162 210 1.0
e 162 29 45.0
e 162 16 1.0
e 162 45 1.0
e 163 269 1.0
e 163 116 1.0
e 164 76 1.0
e 164 189 1.0
e 164 19 2.0
e 164 75 38.0
e 165 137 1.0
e 165 198 2.0
e 165 26 1.0
e 165 20 1.0
e 166 151 3.0
e 166 136 1.0
e 166 187 1.0
e 166 292 1.0
e 167 39 1.0
e 167 142 1.0
e 167 4 2.0
e 167 170 2.0
e 168 259 9.0
e 168 232 2.0
e 168 276 1.0
e 168 163 2.0
e 169 276 1.0
e 169 267 1.0
e 169 210 1.0
e 169 176 1.0
e 170 248 1.0
e 170 280 24.0
e 170 176 1.0
e 170 218 2.0
e 171 135 1.0
e 171 280 40.0
e 171 206 2.0
e 171 125 1.0
e 172 109 1.0
e 172 187 1.0
e 172 268 1.0
e 172 171 1.0
e 173 225 1.0
e 173 273 2.0
e 173 96 1.0
e 173 17 1.0
e 174 68 2.0
e 174 144 38.0
e 174 54 1.0
e 174 102 1.0
e 175 270 38.0
e 175 202 27.0
e 175 174 14.0
e 175 64 6.0
e 176 4 2.0
e 176 148 25.0
e 176 151 1.0
e 176 73 1.0
e 177 276 1.0
e 177 50 1.0
e 177 298 1.0
e 177 67 2.0
e 178 40 1.0
e 178 65 23.0
e 178 135 1.0
e 178 165 1.0
e 179 188 1.0
e 179 85 1.0
e 179 105 1.0
e 179 21 2.0
e 180 151 2.0
e 180 24 1.0
e 180 289 1.0
e 180 134 1.0
e 181 173 1.0
e 181 114 2.0
e 181 25 1.0
e 181 253 1.0
e 182 165 1.0
e 182 307 3.0
e 182 48 2.0
e 182 314 1.0
e 183 255 1.0
e 183 106 1.0
e 183 81 1.0
e 183 23 1.0
e 184 204 2.0
e 184 102 1.0
e 184 235 18.0
e 184 60 1.0
e 185 92 19.0
e 185 178 37.0
e 185 215 11.0
e 185 231 26.0
e 185 35 21.0
e 185 195 11.0
e 185 191 24.0
e 186 110 2.0
e 186 276 1.0
e 186 60 2.0
e 186 107 2.0
e 187 152 1.0
e 187 232 1.0
e 187 237 13.0
e 187 5 35.0
e 188 281 1.0
e 188 70 1.0
e 188 88 2.0
e 188 29 13.0
e 189 299 1.0
e 189 249 1.0
e 189 179 1.0
e 189 245 2.0
e 190 20 1.0
e 190 98 1.0
e 190 214 1.0
e 190 265 1.0
e 191 240 15.0
e 191 26 5.0
e 191 223 18.0
e 191 158 37.0
e 191 160 23.0
e 191 10 20.0
e 191 280 11.0
e 192 293 2.0
e 192 277 1.0
e 192 78 14.0
e 192 160 23.0
e 193 282 1.0
e 193 8 1.0
e 193 135 2.0
e 193 102 1.0
e 194 282 1.0
e 194 69 13.0
e 194 230 1.0
e 194 308 1.0
e 195 251 13.0
e 195 100 13.0
e 195 61 42.0
e 195 4 4.0
e 195 78 7.0
e 195 301 2.0
e 195 237 18.0
e 196 248 1.0
e 196 215 1.0
e 196 41 1.0
e 196 236 1.0
e 197 36 35.0
e 197 41 1.0
e 197 257 1.0
e 197 220 1.0
e 198 197 1.0
e 198 297 1.0
e 198 146 1.0
e 198 209 1.0
e 199 317 1.0
e 199 119 1.0
e 199 27 1.0
e 199 137 1.0
e 200 172 1.0
e 200 199 1.0
e 200 134 1.0
e 200 264 3.0
e 201 165 2.0
e 201 308 1.0
e 201 149 2.0
e 201 129 2.0
e 202 134 1.0
e 202 75 14.0
e 202 119 1.0
e 202 116 1.0
e 203 222 11.0
e 203 232 1.0
e 203 180 2.0
e 203 37 1.0
e 204 139 1.0
e 204 30 1.0
e 204 121 1.0
e 204 65 2.0
e 205 61 1.0
e 205 155 1.0
e 205 259 34.0
e 205 2 2.0
e 206 117 1.0
e 206 228 1.0
e 206 255 2.0
e 206 105 2.0
e 207 85 2.0
e 207 22 1.0
e 207 230 1.0
e 207 26 1.0
e 208 43 1.0
e 208 298 1.0
e 208 311 2.0
e 208 123 1.0
e 209 287 1.0
e 209 50 2.0
e 209 44 1.0
e 209 64 1.0
e 210 56 2.0
e 210 125 1.0
e 210 150 1.0
e 210 44 1.0
e 211 160 39.0
e 211 229 2.0
e 211 276 1.0
e 211 93 1.0
e 212 146 3.0
e 212 159 1.0
e 212 301 9.0
e 212 286 2.0
e 213 184 8.0
e 213 123 14.0
e 213 296 30.0
e 213 119 46.0
e 214 221 2.0
e 214 226 1.0
e 214 131 1.0
e 214 231 2.0
e 215 22 1.0
e 215 111 1.0
e 215 3 1.0
e 215 143 1.0
e 216 175 9.0
e 216 277 1.0
e 216 283 1.0
e 216 118 30.0
e 217 293 2.0
e 217 118 2.0
e 217 122 1.0
e 217 34 2.0
e 218 236 1.0
e 218 301 9.0
e 218 108 2.0
e 218 74 1.0
e 219 232 1.0
e 219 110 1.0
e 219 144 26.0
e 219 285 1.0
e 220 304 1.0
e 220 15 1.0
e 220 163 1.0
e 220 105 1.0
e 221 118 49.0
e 221 159 1.0
e 221 193 1.0
e 221 79 47.0
e 222 46 33.0
e 222 77 14.0
e 222 215 11.0
e 222 275 18.0
e 223 292 1.0
e 223 86 1.0
e 223 154 2.0
e 223 110 1.0
e 224 223 1.0
e 224 98 1.0
e 224 228 1.0
e 224 2 1.0
e 225 242 1.0
e 225 273 1.0
e 225 178 1.0
e 225 309 28.0
e 226 68 1.0
e 226 199 1.0
e 226 134 1.0
e 226 236 2.0
e 227 288 1.0
e 227 81 1.0
e 227 150 1.0
e 227 134 1.0
e 228 243 15.0
e 228 175 5.0
e 228 248 1.0
e 228 271 1.0
e 229 242 1.0
e 229 150 1.0
e 229 291 1.0
e 229 183 2.0
e 230 40 2.0
e 230 192 1.0
e 230 293 1.0
e 230 242 1.0
e 231 197 1.0
e 231 193 1.0
e 231 207 1.0
e 231 8 1.0
e 232 140 1.0
e 232 123 1.0
e 232 193 2.0
e 232 11 1.0
e 233 171 1.0
e 233 7 22.0
e 233 235 2.0
e 233 310 1.0
e 234 202 1.0
e 234 271 1.0
e 234 84 1.0
e 234 70 1.0
e 235 287 39.0
e 235 78 46.0
e 235 117 26.0
e 235 150 14.0
e 236 64 1.0
e 236 207 1.0
e 236 248 1.0
e 236 103 1.0
e 237 81 15.0
e 237 261 31.0
e 237 264 8.0
e 237 230 29.0
e 237 185 37.0
e 238 213 33.0
e 238 166 1.0
e 238 26 2.0
e 239 316 1.0
e 239 274 1.0
e 239 263 14.0
e 239 282 2.0
e 240 35 17.0
e 240 57 1.0
e 240 13 1.0
e 240 50 1.0
e 241 235 43.0
e 241 310 1.0
e 241 71 29.0
e 241 135 2.0
e 242 251 1.0
e 242 264 1.0
e 242 316 1.0
e 242 44 1.0
e 243 208 47.0
e 243 159 48.0
e 243 7 25.0
e 243 193 9.0
e 243 191 34.0
e 244 248 1.0
e 244 253 1.0
e 244 117 1.0
e 244 149 1.0
e 245 300 2.0
e 245 100 2.0
e 245 117 1.0
e 245 173 1.0
e 246 68 1.0
e 246 159 1.0
e 246 21 2.0
e 246 151 1.0
e 247 265 1.0
e 247 189 1.0
e 247 30 2.0
e 247 102 1.0
e 248 254 2.0
e 248 133 2.0
e 248 292 1.0
e 248 90 1.0
e 249 72 46.0
e 249 75 43.0
e 249 185 46.0
e 249 280 48.0
e 250 288 2.0
e 250 313 1.0
e 250 2 1.0
e 250 74 1.0
e 251 15 1.0
e 251 33 2.0
e 251 277 1.0
e 251 125 2.0
e 252 269 1.0
e 252 52 1.0
e 252 281 1.0
e 252 41 1.0
e 253 269 1.0
e 253 140 2.0
e 253 132 1.0
e 253 2 1.0
e 254 170 1.0
e 254 89 2.0
e 254 72 43.0
e 254 122 1.0
e 255 228 1.0
e 255 274 1.0
e 255 102 2.0
e 255 124 2.0
e 256 182 12.0
e 256 29 2.0
e 256 32 8.0
e 256 225 5.0
e 256 237 47.0
e 256 243 8.0
e 256 195 39.0
e 257 1 1.0
e 257 217 1.0
e 257 279 1.0
e 257 129 1.0
e 258 22 1.0
e 258 293 2.0
e 258 38 2.0
e 258 177 1.0
e 259 290 23.0
e 259 89 22.0
e 259 213 19.0
e 259 128 44.0
e 260 165 1.0
e 260 124 2.0
e 260 164 2.0
e 260 47 1.0
e 261 5 11.0
e 261 307 1.0
e 261 124 1.0
e 261 201 1.0
e 262 86 45.0
e 262 77 36.0
e 262 246 38.0
e 262 270 10.0
e 262 318 5.0
e 262 148 13.0
e 263 244 10.0
e 263 16 17.0
e 263 181 32.0
e 263 95 36.0
e 263 256 23.0
e 263 5 14.0
e 264 248 2.0
e 264 238 1.0
e 264 83 1.0
e 264 21 1.0
e 265 268 1.0
e 265 311 1.0
e 265 141 1.0
e 265 86 1.0
e 266 184 1.0
e 266 314 1.0
e 266 94 1.0
e 266 52 1.0
e 267 147 1.0
e 267 163 1.0
e 267 203 2.0
e 267 222 45.0
e 268 54 1.0
e 268 291 1.0
e 268 289 1.0
e 268 288 2.0
e 269 136 1.0
e 269 201 2.0
e 269 309 25.0
e 269 249 1.0
e 270 216 1.0
e 270 53 1.0
e 270 312 2.0
e 270 49 1.0
e 271 257 1.0
e 271 248 1.0
e 271 295 1.0
e 271 312 1.0
e 272 113 1.0
e 272 217 1.0
e 272 273 2.0
e 272 92 1.0
e 273 126 2.0
e 273 275 2.0
e 273 22 2.0
e 274 90 1.0
e 274 138 1.0
e 274 31 1.0
e 274 165 2.0
e 275 69 20.0
e 275 243 19.0
e 275 48 1.0
e 275 190 1.0
e 276 296 1.0
e 276 157 1.0
e 276 129 1.0
e 277 63 13.0
e 277 311 1.0
e 277 10 44.0
e 277 260 1.0
e 278 300 1.0
e 278 207 2.0
e 278 133 1.0
e 278 44 1.0
e 279 292 1.0
e 279 155 2.0
e 279 19 1.0
e 279 168 1.0
e 280 139 31.0
e 280 162 27.0
e 280 23 4.0
e 280 299 2.0
e 281 63 34.0
e 281 3 1.0
e 281 221 1.0
e 281 182 1.0
e 282 182 1.0
e 282 47 1.0
e 282 262 3.0
e 282 40 2.0
e 283 230 1.0
e 283 65 46.0
e 283 177 1.0
e 283 194 2.0
e 284 11 1.0
e 284 51 2.0
e 284 207 2.0
e 284 127 2.0
e 285 95 1.0
e 285 59 1.0
e 285 179 1.0
e 285 241 1.0
e 286 9 1.0
e 286 173 1.0
e 286 175 4.0
e 286 194 2.0
e 287 210 1.0
e 287 63 48.0
e 287 27 1.0
e 288 136 1.0
e 288 196 1.0
e 288 287 1.0
e 288 73 1.0
e 289 17 1.0
e 289 220 1.0
e 289 223 1.0
e 289 134 1.0
e 290 211 1.0
e 290 212 2.0
e 290 194 1.0
e 290 189 1.0
e 291 314 1.0
e 291 132 1.0
e 291 162 1.0
e 291 213 47.0
e 292 274 1.0
e 292 252 1.0
e 292 1 1.0
e 292 10 20.0
e 293 316 1.0
e 293 43 1.0
e 293 263 4.0
e 293 248 2.0
e 294 49 1.0
e 294 15 3.0
e 294 129 2.0
e 294 161 26.0
e 295 110 1.0
e 295 64 1.0
e 295 161 35.0
e 295 279 1.0
e 296 93 1.0
e 296 312 1.0
e 296 65 3.0
e 296 37 1.0
e 297 125 1.0
e 297 100 1.0
e 297 261 1.0
e 298 180 1.0
e 298 16 2.0
e 298 188 2.0
e 298 88 2.0
e 299 262 34.0
e 299 34 1.0
e 299 23 1.0
e 299 152 3.0
e 300 42 2.0
e 300 94 2.0
e 300 165 1.0
e 300 69 6.0
e 301 211 22.0
e 301 269 46.0
e 301 161 34.0
e 301 288 29.0
e 302 231 1.0
e 302 266 1.0
e 302 27 2.0
e 302 150 1.0
e 303 237 48.0
e 303 199 44.0
e 303 156 36.0
e 303 318 13.0
e 303 280 25.0
e 303 301 21.0
e 303 62 40.0
e 303 161 21.0
e 304 318 2.0
e 304 60 1.0
e 304 170 3.0
e 304 15 2.0
e 305 1 1.0
e 305 165 2.0
e 305 154 1.0
e 305 133 2.0
e 306 99 1.0
e 306 143 1.0
e 306 14 2.0
e 306 210 1.0
e 307 67 1.0
e 307 291 1.0
e 307 129 1.0
e 307 172 1.0
e 308 64 2.0
e 308 39 2.0
e 308 16 3.0
e 308 53 1.0
e 309 137 38.0
e 309 6 18.0
e 309 142 2.0
e 309 177 35.0
e 310 302 1.0
e 310 142 1.0
e 310 79 35.0
e 310 159 1.0
e 311 226 1.0
e 311 187 1.0
e 311 291 1.0
e 311 40 1.0
e 312 58 1.0
e 312 74 1.0
e 312 204 2.0
e 312 147 1.0
e 313 214 1.0
e 313 18 1.0
e 313 104 1.0
e 313 285 1.0
e 314 169 1.0
e 314 140 1.0
e 314 167 1.0
e 314 193 1.0
e 315 61 2.0
e 315 133 1.0
e 315 145 1.0
e 315 91 1.0
e 316 245 2.0
e 316 277 1.0
e 316 231 1.0
e 316 219 3.0
e 317 260 1.0
e 317 16 1.0
e 317 108 1.0
e 317 83 1.0
e 318 181 16.0
e 318 257 31.0
e 318 45 38.0
e 318 210 30.0
e 319 96 1.0
e 319 69 13.0
e 319 314 1.0
e 319 72 21.0
